c colouring generated by benchmark framework
p edge 300 21695
v 1 45
v 2 22
v 3 13
v 4 32
v 5 27
v 6 17
v 7 22
v 8 16
v 9 44
v 10 24
v 11 14
v 12 14
v 13 5
v 14 24
v 15 45
v 16 36
v 17 24
v 18 22
v 19 25
v 20 25
v 21 42
v 22 23
v 23 4
v 24 31
v 25 32
v 26 34
v 27 32
v 28 2
v 29 23
v 30 23
v 31 1
v 32 37
v 33 25
v 34 23
v 35 30
v 36 11
v 37 19
v 38 8
v 39 9
v 40 15
v 41 24
v 42 38
v 43 40
v 44 16
v 45 35
v 46 6
v 47 20
v 48 33
v 49 0
v 50 9
v 51 44
v 52 4
v 53 35
v 54 23
v 55 39
v 56 30
v 57 24
v 58 35
v 59 10
v 60 7
v 61 6
v 62 15
v 63 31
v 64 15
v 65 17
v 66 2
v 67 24
v 68 27
v 69 9
v 70 9
v 71 43
v 72 19
v 73 7
v 74 34
v 75 15
v 76 11
v 77 18
v 78 28
v 79 43
v 80 37
v 81 11
v 82 34
v 83 9
v 84 5
v 85 27
v 86 8
v 87 16
v 88 16
v 89 20
v 90 1
v 91 2
v 92 26
v 93 40
v 94 2
v 95 42
v 96 5
v 97 29
v 98 41
v 99 20
v 100 37
v 101 7
v 102 29
v 103 7
v 104 41
v 105 4
v 106 24
v 107 10
v 108 15
v 109 11
v 110 17
v 111 36
v 112 30
v 113 4
v 114 26
v 115 11
v 116 30
v 117 40
v 118 3
v 119 4
v 120 7
v 121 33
v 122 26
v 123 15
v 124 17
v 125 22
v 126 17
v 127 45
v 128 6
v 129 29
v 130 15
v 131 27
v 132 37
v 133 19
v 134 18
v 135 17
v 136 34
v 137 19
v 138 16
v 139 14
v 140 43
v 141 18
v 142 4
v 143 35
v 144 32
v 145 12
v 146 10
v 147 31
v 148 13
v 149 44
v 150 19
v 151 2
v 152 14
v 153 11
v 154 23
v 155 33
v 156 11
v 157 3
v 158 7
v 159 32
v 160 21
v 161 19
v 162 13
v 163 27
v 164 7
v 165 28
v 166 42
v 167 36
v 168 5
v 169 38
v 170 36
v 171 41
v 172 10
v 173 24
v 174 7
v 175 31
v 176 8
v 177 10
v 178 22
v 179 43
v 180 2
v 181 18
v 182 31
v 183 4
v 184 13
v 185 6
v 186 18
v 187 16
v 188 45
v 189 21
v 190 9
v 191 12
v 192 35
v 193 38
v 194 36
v 195 6
v 196 9
v 197 28
v 198 21
v 199 34
v 200 21
v 201 28
v 202 21
v 203 5
v 204 14
v 205 30
v 206 0
v 207 39
v 208 29
v 209 8
v 210 5
v 211 3
v 212 10
v 213 6
v 214 0
v 215 43
v 216 37
v 217 14
v 218 26
v 219 0
v 220 28
v 221 20
v 222 13
v 223 25
v 224 11
v 225 33
v 226 16
v 227 39
v 228 30
v 229 38
v 230 22
v 231 3
v 232 41
v 233 6
v 234 23
v 235 21
v 236 18
v 237 32
v 238 12
v 239 27
v 240 3
v 241 44
v 242 8
v 243 38
v 244 1
v 245 5
v 246 20
v 247 3
v 248 29
v 249 27
v 250 13
v 251 13
v 252 40
v 253 12
v 254 34
v 255 32
v 256 23
v 257 20
v 258 9
v 259 30
v 260 1
v 261 3
v 262 29
v 263 22
v 264 25
v 265 25
v 266 43
v 267 1
v 268 41
v 269 6
v 270 40
v 271 26
v 272 0
v 273 17
v 274 12
v 275 21
v 276 1
v 277 18
v 278 0
v 279 31
v 280 8
v 281 35
v 282 39
v 283 44
v 284 8
v 285 12
v 286 41
v 287 29
v 288 28
v 289 41
v 290 10
v 291 19
v 292 27
v 293 4
v 294 1
v 295 42
v 296 14
v 297 8
v 298 12
v 299 0
v 300 26
